72 5000 60641 
12 1
41 1
46 1
61 1
107 1
111 1
138 1
141 1
161 1
205 1
220 1
237 1
244 1
257 1
268 1
269 1
276 1
289 1
296 1
320 1
322 1
337 1
339 1
345 1
348 1
353 1
359 1
372 1
373 1
382 1
399 1
408 1
420 1
457 1
460 1
482 1
484 1
505 1
508 1
515 1
525 1
527 1
554 1
564 1
571 1
599 1
619 1
632 1
637 1
670 1
716 1
727 1
736 1
748 1
760 1
770 1
777 1
809 1
817 1
822 1
825 1
842 1
859 1
869 1
882 1
906 1
907 1
932 1
933 1
948 1
949 1
968 1
